0 3341
1 3259
2 2905
3 2905
4 2905
5 2905
6 2905
7 2905
8 2905
9 2905
10 2905
11 2905
12 2905
13 2905
14 2905
15 2681
16 2681
17 2681
18 2681
19 2681
20 2640
21 2640
22 2640
23 2640
24 2640
25 2640
26 2640
27 2640
28 2640
29 2640
30 2640
31 2640
32 2640
33 2640
34 2640
35 2640
36 2640
37 2640
38 2640
39 2640
40 2640
41 2640
42 2640
43 2640
44 2640
45 2640
46 2640
47 2640
48 2640
49 2640
50 2634
51 2609
52 2595
53 2595
54 2550
55 2550
56 2543
57 2516
58 2516
59 2509
60 2509
61 2509
62 2509
63 2509
64 2509
65 2509
66 2509
67 2509
68 2509
69 2509
70 2509
71 2509
72 2509
73 2509
74 2509
75 2509
76 2509
77 2509
78 2509
79 2509
80 2509
81 2509
82 2509
83 2509
84 2509
85 2509
86 2509
87 2509
88 2509
89 2509
90 2509
91 2509
92 2509
93 2509
94 2509
95 2509
96 2509
97 2509
98 2509
99 2509
100 2509
101 2509
102 2509
103 2509
104 2509
105 2509
106 2509
107 2509
108 2509
109 2490
110 2490
111 2490
112 2487
113 2487
114 2471
115 2468
116 2468
117 2443
118 2443
119 2443
120 2443
121 2443
122 2443
123 2443
124 2443
125 2443
126 2443
127 2431
128 2402
129 2402
130 2402
131 2402
132 2402
133 2402
134 2402
135 2402
136 2402
137 2402
138 2402
139 2402
140 2402
141 2402
142 2347
143 2347
144 2272
145 2242
146 2242
147 2206
148 2206
149 2206
150 2206
151 2206
152 2206
153 2169
154 2169
155 2169
156 2169
157 2169
158 2169
159 2169
160 2169
161 2169
162 2169
163 2169
164 2169
165 2169
166 2169
167 2169
168 2169
169 2169
170 2169
171 2169
172 2169
173 2169
174 2169
175 2169
176 2169
177 2169
178 2169
179 2169
180 2169
181 2169
182 2169
183 2169
184 2169
185 2169
186 2169
187 2169
188 2169
189 2169
190 2169
191 2169
192 2169
193 2169
194 2169
195 2169
196 2169
197 2169
198 2169
199 2169
200 2169
201 2169
202 2169
203 2169
204 2169
205 2169
206 2169
207 2169
208 2169
209 2169
210 2169
211 2169
212 2169
213 2169
214 2169
215 2169
216 2169
217 2169
218 2169
219 2169
220 2169
221 2169
222 2169
223 2169
224 2169
225 2169
226 2169
227 2169
228 2169
229 2169
230 2169
231 2169
232 2168
233 2168
234 2168
235 2168
236 2168
237 2168
238 2168
239 2168
240 2168
241 2168
242 2168
243 2168
244 2168
245 2168
246 2168
247 2168
248 2168
249 2168
250 2168
251 2168
252 2168
253 2168
254 2168
255 2168
256 2168
257 2168
258 2168
259 2168
260 2168
261 2168
262 2168
263 2168
264 2168
265 2168
266 2168
267 2168
268 2168
269 2168
270 2168
271 2168
272 2168
273 2168
274 2168
275 2168
276 2168
277 2168
278 2168
279 2168
280 2168
281 2168
282 2143
283 2143
284 2143
285 2143
286 2143
287 2143
288 2143
289 2143
290 2143
291 2143
292 2143
293 2143
294 2143
295 2143
296 2143
297 2143
298 2143
299 2143
300 2143
301 2143
302 2143
303 2143
304 2143
305 2143
306 2143
307 2143
308 2143
309 2143
310 2143
311 2143
312 2143
313 2143
314 2143
315 2143
316 2143
317 2143
318 2143
319 2143
320 2143
321 2143
322 2143
323 2143
324 2143
325 2143
326 2143
327 2143
328 2143
329 2143
330 2143
331 2143
332 2143
333 2143
334 2143
335 2143
336 2143
337 2143
338 2143
339 2143
340 2143
341 2143
342 2143
343 2143
344 2143
345 2143
346 2143
347 2143
348 2143
349 2143
350 2143
351 2143
352 2143
353 2143
354 2143
355 2143
356 2143
357 2143
358 2143
359 2143
360 2143
361 2143
362 2143
363 2143
364 2143
365 2143
366 2143
367 2143
368 2089
369 2089
370 2089
371 2089
372 2089
373 2089
374 2089
375 2089
376 2089
377 2089
378 2089
379 2089
380 2089
381 2089
382 2089
383 2089
384 2089
385 2089
386 2089
387 2089
388 2089
389 2089
390 2089
391 2089
392 2089
393 2089
394 2089
395 2089
396 2089
397 2089
398 2050
399 2050
400 2050
401 2050
402 2050
403 2050
404 2050
405 2050
406 2050
407 2050
408 2050
409 2050
410 2050
411 2050
412 2050
413 2050
414 2050
415 2050
416 2050
417 2050
418 2050
419 2050
420 2050
421 2050
422 2050
423 2050
424 2050
425 2050
426 2050
427 2050
428 2050
429 2041
430 2041
431 2037
432 2037
433 2037
434 2037
435 2037
436 2037
437 2037
438 2037
439 2037
440 2037
441 2037
442 2037
443 2037
444 2037
445 2037
446 2037
447 2037
448 2037
449 2037
450 2037
451 2037
452 2035
453 2035
454 2035
455 2035
456 2035
457 2035
458 2007
459 2007
460 2007
461 2007
462 2007
463 2007
464 2007
465 2007
466 2007
467 2007
468 2007
469 2007
470 2007
471 2007
472 2007
473 2007
474 2007
475 2007
476 2007
477 2007
478 2007
479 2007
480 2007
481 2007
482 2007
483 2007
484 2007
485 2007
486 2007
487 2007
488 2007
489 2007
490 2007
491 2007
492 2007
493 2007
494 2007
495 2007
496 2007
497 2007
498 2007
499 2007
500 2007
501 2007
502 2007
503 2007
504 2007
505 2007
506 2007
507 2007
508 2007
509 2007
510 2007
511 2007
512 2007
513 2007
514 2007
515 2007
516 2007
517 2007
518 2007
519 2007
520 2007
521 2007
522 2007
523 2007
524 2007
525 2007
526 2007
527 2007
528 2007
529 2007
530 2007
531 2007
532 2007
533 2007
534 2007
535 2007
536 2007
537 2007
538 2007
539 2007
540 2007
541 2007
542 2007
543 2007
544 2007
545 2007
546 2007
547 2007
548 2007
549 2007
550 2007
551 2007
552 2007
553 2007
554 2007
555 2007
556 2007
557 2007
558 2007
559 2007
560 2007
561 2007
562 2007
563 2007
564 2007
565 2007
566 2007
567 2007
568 2007
569 2007
570 2007
571 2007
572 2007
573 2007
574 2007
575 2007
576 2007
577 2007
578 2007
579 2007
580 2007
581 2007
582 2007
583 2007
584 2007
585 2007
586 2007
587 2007
588 2007
589 2007
590 2007
591 2007
592 2007
593 2007
594 2007
595 2007
596 2007
597 2007
598 2007
599 2007
600 2007
601 2007
602 2007
603 2007
604 2007
605 2007
606 2006
607 2006
608 2006
609 2006
610 2006
611 2006
612 2006
613 2006
614 2006
615 2006
616 2006
617 2006
618 2006
619 2006
620 2006
621 2006
622 2006
623 2006
624 2006
625 2006
626 2006
627 2006
628 2006
629 2006
630 2006
631 2006
632 2006
633 2006
634 2006
635 2006
636 2006
637 2006
638 2006
639 2006
640 2006
641 2006
642 2006
643 2006
644 2006
645 2006
646 2006
647 2006
648 2006
649 2006
650 2006
651 2006
652 2006
653 2006
654 2006
655 2006
656 2006
657 2006
658 2006
659 2006
660 2006
661 2006
662 2006
663 2006
664 2006
665 2006
666 2006
667 2006
668 2006
669 2006
670 2006
671 2006
672 2006
673 2006
674 2006
675 2006
676 2006
677 2006
678 2006
679 2006
680 2006
681 2006
682 2006
683 2006
684 2006
685 2006
686 2006
687 2006
688 2006
689 2006
690 2006
691 2006
692 2006
693 2006
694 2006
695 2006
696 2006
697 2006
698 2006
699 2006
700 2006
701 2006
702 2006
703 2006
704 2006
705 2006
706 2006
707 2006
708 2006
709 2006
710 2006
711 2006
712 2006
713 2006
714 2006
715 2006
716 2006
717 2006
718 2006
719 2006
720 2006
721 2006
722 2006
723 2006
724 2006
725 2006
726 2006
727 2006
728 2006
729 2006
730 2006
731 2006
732 2006
733 2006
734 2006
735 2006
736 2006
737 2006
738 2006
739 2006
740 2006
741 2006
742 2006
743 2006
744 2006
745 2006
746 2006
747 2006
748 2006
749 2006
750 1982
751 1982
752 1982
753 1982
754 1982
755 1982
756 1982
757 1982
758 1982
759 1982
760 1982
761 1982
762 1982
763 1982
764 1982
765 1982
766 1982
767 1982
768 1982
769 1982
770 1982
771 1982
772 1982
773 1982
774 1982
775 1982
776 1982
777 1982
778 1982
779 1982
780 1982
781 1982
782 1982
783 1982
784 1982
785 1982
786 1982
787 1982
788 1982
789 1982
790 1982
791 1982
792 1982
793 1982
794 1982
795 1982
796 1982
797 1982
798 1982
799 1982
800 1982
801 1976
802 1976
803 1976
804 1976
805 1976
806 1976
807 1976
808 1976
809 1976
810 1976
811 1976
812 1976
813 1976
814 1976
815 1976
816 1976
817 1976
818 1976
819 1976
820 1976
821 1976
822 1976
823 1976
824 1976
825 1976
826 1976
827 1976
828 1976
829 1976
830 1976
831 1976
832 1976
833 1976
834 1976
835 1976
836 1976
837 1976
838 1976
839 1976
840 1976
841 1976
842 1976
843 1976
844 1976
845 1976
846 1976
847 1976
848 1976
849 1976
850 1976
851 1976
852 1976
853 1976
854 1976
855 1976
856 1976
857 1976
858 1976
859 1976
860 1976
861 1976
862 1976
863 1976
864 1976
865 1976
866 1976
867 1976
868 1976
869 1971
870 1971
871 1971
872 1971
873 1971
874 1971
875 1971
876 1971
877 1971
878 1971
879 1971
880 1971
881 1971
882 1971
883 1971
884 1971
885 1971
886 1971
887 1971
888 1971
889 1971
890 1971
891 1971
892 1971
893 1971
894 1971
895 1971
896 1971
897 1971
898 1971
899 1971
900 1971
901 1971
902 1971
903 1971
904 1971
905 1971
906 1971
907 1971
908 1971
909 1971
910 1971
911 1971
912 1971
913 1971
914 1971
915 1971
916 1971
917 1971
918 1971
919 1971
920 1971
921 1971
922 1971
923 1971
924 1971
925 1971
926 1971
927 1971
928 1971
929 1971
930 1971
931 1971
932 1971
933 1971
934 1971
935 1971
936 1971
937 1971
938 1971
939 1971
940 1971
941 1971
942 1971
943 1971
944 1971
945 1971
946 1971
947 1971
948 1971
949 1971
950 1971
951 1971
952 1971
953 1971
954 1971
955 1971
956 1971
957 1971
958 1971
959 1971
960 1971
961 1971
962 1971
963 1971
964 1971
965 1971
966 1971
967 1971
968 1971
969 1971
970 1954
971 1954
972 1954
973 1954
974 1954
975 1954
976 1954
977 1954
978 1954
979 1954
980 1954
981 1954
982 1954
983 1954
984 1954
985 1954
986 1954
987 1954
988 1954
989 1954
990 1954
991 1954
992 1954
993 1954
994 1954
995 1954
996 1954
997 1954
998 1954
999 1954
Best: [[30,37,9,22,12,23,13,29,34,21,15],
       [25,26,36,33],
       [5,24,3,4,6,32,2,10,20],
       [7,19,31,16,11,18],
       [17,28,14,27,35,8]], fitness: 1954
